num_features = 22;
num_usage_limits = 2;
num_plans = 3;
num_addons = 0;

features = ["allInOneDashboard","createInvoices","createBills","connectYourBanks","runPayroll","createSalesPipelines","emailMarketing","emailSupport","chatSupport","accessToHelpCenter","deskeraAcademy","noCodeLandingPages","multiCurrency","applyLeaves","approveLeaves","dragAndDropCustomForms","addCustomFields","completeInventoryManagement","applyExpenses","approveExpenses","salesAutomation","automateTasksOnDealStages"];
usage_limits = ["invoiceAndBillsLimit","runPayrollLimit"];
plans = ["STARTUP","ESSENTIAL","PROFESSIONAL"];
addons = [];

plans_prices = [35,58,119];
addons_prices = [];

linked_features = array2d(USAGE_LIMITS, FEATURES, [
    % invoiceAndBillsLimit
    0,1,1,0,0,0,0,0,0,0,0,0,0,0,0,0,0,0,0,0,0,0,
    % runPayrollLimit
    0,0,0,0,1,0,0,0,0,0,0,0,0,0,0,0,0,0,0,0,0,0
]);

plans_features = array2d(PLANS, FEATURES, [
    % STARTUP
    1,1,1,1,1,1,1,1,1,1,1,1,0,0,0,0,0,0,0,0,0,0,
    % ESSENTIAL
    1,1,1,1,1,1,1,1,1,1,1,1,1,1,1,1,0,0,0,0,0,0,
    % PROFESSIONAL
    1,1,1,1,1,1,1,1,1,1,1,1,1,1,1,1,1,1,1,1,1,1
]);
plans_usage_limits = array2d(PLANS, USAGE_LIMITS, [
    % STARTUP
    30,15,
    % ESSENTIAL
    Infinity,30,
    % PROFESSIONAL
    Infinity,100
]);

addons_features = array2d(ADDONS, FEATURES, [
]);
addons_usage_limits = array2d(ADDONS, USAGE_LIMITS, [
]);
addons_usage_limits_extensions = array2d(ADDONS, USAGE_LIMITS, [
]);
addons_available_for = array2d(ADDONS, PLANS, [
]);
addons_depends_on = array2d(ADDONS, ADDONS, [
]);
